(declare-rel state (Bool Int Int Int Int Bool Bool Bool Bool Int Int Int Int Int Int Int Bool Bool Bool Int Int Int Int Int Int Int Int Int Int Int Int Int Int Bool Bool Bool Int Int Int Bool Bool Bool))
(declare-var |_OK_| Bool)
(declare-var |_OK_.next| Bool)
(declare-var |a| Int)
(declare-var |a.next| Int)
(declare-var |b| Int)
(declare-var |b.next| Int)
(declare-var |call_First.First| Int)
(declare-var |call_First.First.next| Int)
(declare-var |call_First.flby| Int)
(declare-var |call_First.flby.next| Int)
(declare-var |call_FirstB.First| Bool)
(declare-var |call_FirstB.First.next| Bool)
(declare-var |call_FirstB.flby| Bool)
(declare-var |call_FirstB.flby.next| Bool)
(declare-var |call_Sofar.Sofar| Bool)
(declare-var |call_Sofar.Sofar.next| Bool)
(declare-var |call_Sofar.flby| Bool)
(declare-var |call_Sofar.flby.next| Bool)
(declare-var |call__PRODUCER_CONSUMMER_.a| Int)
(declare-var |call__PRODUCER_CONSUMMER_.a.next| Int)
(declare-var |call__PRODUCER_CONSUMMER_.b| Int)
(declare-var |call__PRODUCER_CONSUMMER_.b.next| Int)
(declare-var |call__PRODUCER_CONSUMMER_.flby| Int)
(declare-var |call__PRODUCER_CONSUMMER_.flby.next| Int)
(declare-var |call__PRODUCER_CONSUMMER_.flby2| Int)
(declare-var |call__PRODUCER_CONSUMMER_.flby2.next| Int)
(declare-var |call__PRODUCER_CONSUMMER_.flby3| Int)
(declare-var |call__PRODUCER_CONSUMMER_.flby3.next| Int)
(declare-var |call__PRODUCER_CONSUMMER_.flby4| Int)
(declare-var |call__PRODUCER_CONSUMMER_.flby4.next| Int)
(declare-var |call__PRODUCER_CONSUMMER_.flby5| Int)
(declare-var |call__PRODUCER_CONSUMMER_.flby5.next| Int)
(declare-var |call__PRODUCER_CONSUMMER_.garde1| Bool)
(declare-var |call__PRODUCER_CONSUMMER_.garde1.next| Bool)
(declare-var |call__PRODUCER_CONSUMMER_.garde2| Bool)
(declare-var |call__PRODUCER_CONSUMMER_.garde2.next| Bool)
(declare-var |call__PRODUCER_CONSUMMER_.garde3| Bool)
(declare-var |call__PRODUCER_CONSUMMER_.garde3.next| Bool)
(declare-var |call__PRODUCER_CONSUMMER_.i| Int)
(declare-var |call__PRODUCER_CONSUMMER_.i.next| Int)
(declare-var |call__PRODUCER_CONSUMMER_.ite_keyword| Int)
(declare-var |call__PRODUCER_CONSUMMER_.ite_keyword.next| Int)
(declare-var |call__PRODUCER_CONSUMMER_.ite_keyword10| Int)
(declare-var |call__PRODUCER_CONSUMMER_.ite_keyword10.next| Int)
(declare-var |call__PRODUCER_CONSUMMER_.ite_keyword11| Int)
(declare-var |call__PRODUCER_CONSUMMER_.ite_keyword11.next| Int)
(declare-var |call__PRODUCER_CONSUMMER_.ite_keyword2| Int)
(declare-var |call__PRODUCER_CONSUMMER_.ite_keyword2.next| Int)
(declare-var |call__PRODUCER_CONSUMMER_.ite_keyword3| Int)
(declare-var |call__PRODUCER_CONSUMMER_.ite_keyword3.next| Int)
(declare-var |call__PRODUCER_CONSUMMER_.ite_keyword4| Int)
(declare-var |call__PRODUCER_CONSUMMER_.ite_keyword4.next| Int)
(declare-var |call__PRODUCER_CONSUMMER_.ite_keyword5| Int)
(declare-var |call__PRODUCER_CONSUMMER_.ite_keyword5.next| Int)
(declare-var |call__PRODUCER_CONSUMMER_.ite_keyword6| Int)
(declare-var |call__PRODUCER_CONSUMMER_.ite_keyword6.next| Int)
(declare-var |call__PRODUCER_CONSUMMER_.ite_keyword7| Int)
(declare-var |call__PRODUCER_CONSUMMER_.ite_keyword7.next| Int)
(declare-var |call__PRODUCER_CONSUMMER_.ite_keyword8| Int)
(declare-var |call__PRODUCER_CONSUMMER_.ite_keyword8.next| Int)
(declare-var |call__PRODUCER_CONSUMMER_.ite_keyword9| Int)
(declare-var |call__PRODUCER_CONSUMMER_.ite_keyword9.next| Int)
(declare-var |call__PRODUCER_CONSUMMER_.o1| Int)
(declare-var |call__PRODUCER_CONSUMMER_.o1.next| Int)
(declare-var |call__PRODUCER_CONSUMMER_.o2| Int)
(declare-var |call__PRODUCER_CONSUMMER_.o2.next| Int)
(declare-var |call_excludes3.excludes| Bool)
(declare-var |call_excludes3.excludes.next| Bool)
(declare-var |env| Bool)
(declare-var |env.next| Bool)
(declare-var |flby| Bool)
(declare-var |flby.next| Bool)
(declare-var |i| Int)
(declare-var |i.next| Int)
(declare-var |o1| Int)
(declare-var |o1.next| Int)
(declare-var |o2| Int)
(declare-var |o2.next| Int)
(declare-var |param_a_init| Int)
(declare-var |param_etat1| Bool)
(declare-var |param_etat1.next| Bool)
(declare-var |param_etat2| Bool)
(declare-var |param_etat2.next| Bool)
(declare-var |param_etat3| Bool)
(declare-var |param_etat3.next| Bool)

(define-fun .init () Bool
(let ((.def_124 (not param_etat3)))
(let ((.def_123 (= call__PRODUCER_CONSUMMER_.ite_keyword11 call__PRODUCER_CONSUMMER_.ite_keyword10)))
(let ((.def_125 (or .def_123 .def_124)))
(let ((.def_126 (and flby .def_125)))
(let ((.def_119 (= call__PRODUCER_CONSUMMER_.ite_keyword2 call__PRODUCER_CONSUMMER_.ite_keyword)))
(let ((.def_56 (not param_etat1)))
(let ((.def_120 (or .def_56 .def_119)))
(let ((.def_127 (and .def_120 .def_126)))
(let ((.def_115 (= call__PRODUCER_CONSUMMER_.ite_keyword9 call__PRODUCER_CONSUMMER_.ite_keyword8)))
(let ((.def_47 (not param_etat2)))
(let ((.def_116 (or .def_47 .def_115)))
(let ((.def_128 (and .def_116 .def_127)))
(let ((.def_112 (= call__PRODUCER_CONSUMMER_.a call__PRODUCER_CONSUMMER_.flby)))
(let ((.def_129 (and .def_112 .def_128)))
(let ((.def_111 (= call__PRODUCER_CONSUMMER_.flby2 0)))
(let ((.def_130 (and .def_111 .def_129)))
(let ((.def_110 (= call__PRODUCER_CONSUMMER_.flby3 param_a_init)))
(let ((.def_131 (and .def_110 .def_130)))
(let ((.def_109 (= call__PRODUCER_CONSUMMER_.flby4 0)))
(let ((.def_132 (and .def_109 .def_131)))
(let ((.def_108 (= call__PRODUCER_CONSUMMER_.flby5 0)))
(let ((.def_133 (and .def_108 .def_132)))
(let ((.def_102 (or param_etat1 param_etat2)))
(let ((.def_103 (or param_etat3 .def_102)))
(let ((.def_104 (not .def_103)))
(let ((.def_106 (or call_excludes3.excludes .def_104)))
(let ((.def_107 (= call_Sofar.flby .def_106)))
(let ((.def_134 (and .def_107 .def_133)))
(let ((.def_105 (= call_FirstB.flby .def_104)))
(let ((.def_135 (and .def_105 .def_134)))
(let ((.def_101 (= call_First.flby param_a_init)))
(let ((.def_136 (and .def_101 .def_135)))
(let ((.def_78 (not env)))
(let ((.def_80 (or .def_78 flby)))
(let ((.def_82 (= .def_80 _OK_)))
(let ((.def_77 (= call__PRODUCER_CONSUMMER_.i i)))
(let ((.def_83 (and .def_77 .def_82)))
(let ((.def_75 (= call__PRODUCER_CONSUMMER_.b b)))
(let ((.def_84 (and .def_75 .def_83)))
(let ((.def_73 (= call__PRODUCER_CONSUMMER_.a a)))
(let ((.def_85 (and .def_73 .def_84)))
(let ((.def_71 (= call__PRODUCER_CONSUMMER_.o1 o1)))
(let ((.def_86 (and .def_71 .def_85)))
(let ((.def_69 (= call__PRODUCER_CONSUMMER_.o2 o2)))
(let ((.def_87 (and .def_69 .def_86)))
(let ((.def_64 (and call_FirstB.First call_Sofar.Sofar)))
(let ((.def_62 (<= call_First.First 0)))
(let ((.def_63 (not .def_62)))
(let ((.def_65 (and .def_63 .def_64)))
(let ((.def_67 (= .def_65 env)))
(let ((.def_88 (and .def_67 .def_87)))
(let ((.def_58 (= call__PRODUCER_CONSUMMER_.ite_keyword6 call__PRODUCER_CONSUMMER_.ite_keyword7)))
(let ((.def_59 (or param_etat1 .def_58)))
(let ((.def_55 (= call__PRODUCER_CONSUMMER_.ite_keyword7 call__PRODUCER_CONSUMMER_.ite_keyword3)))
(let ((.def_57 (or .def_55 .def_56)))
(let ((.def_60 (and .def_57 .def_59)))
(let ((.def_89 (and .def_60 .def_88)))
(let ((.def_50 (= call__PRODUCER_CONSUMMER_.ite_keyword6 call__PRODUCER_CONSUMMER_.ite_keyword5)))
(let ((.def_51 (or param_etat2 .def_50)))
(let ((.def_46 (= call__PRODUCER_CONSUMMER_.ite_keyword6 call__PRODUCER_CONSUMMER_.ite_keyword4)))
(let ((.def_48 (or .def_46 .def_47)))
(let ((.def_52 (and .def_48 .def_51)))
(let ((.def_90 (and .def_52 .def_89)))
(let ((.def_43 (= call__PRODUCER_CONSUMMER_.flby call__PRODUCER_CONSUMMER_.i)))
(let ((.def_91 (and .def_43 .def_90)))
(let ((.def_40 (= call__PRODUCER_CONSUMMER_.flby2 call__PRODUCER_CONSUMMER_.b)))
(let ((.def_92 (and .def_40 .def_91)))
(let ((.def_37 (= call__PRODUCER_CONSUMMER_.a call__PRODUCER_CONSUMMER_.flby3)))
(let ((.def_93 (and .def_37 .def_92)))
(let ((.def_34 (= call__PRODUCER_CONSUMMER_.flby4 call__PRODUCER_CONSUMMER_.o1)))
(let ((.def_94 (and .def_34 .def_93)))
(let ((.def_31 (= call__PRODUCER_CONSUMMER_.flby5 call__PRODUCER_CONSUMMER_.o2)))
(let ((.def_95 (and .def_31 .def_94)))
(let ((.def_24 (and param_etat2 param_etat3)))
(let ((.def_22 (and param_etat1 param_etat3)))
(let ((.def_20 (and param_etat1 param_etat2)))
(let ((.def_23 (or .def_20 .def_22)))
(let ((.def_25 (or .def_23 .def_24)))
(let ((.def_26 (not .def_25)))
(let ((.def_28 (= .def_26 call_excludes3.excludes)))
(let ((.def_96 (and .def_28 .def_95)))
(let ((.def_17 (= call_Sofar.flby call_Sofar.Sofar)))
(let ((.def_97 (and .def_17 .def_96)))
(let ((.def_14 (= call_FirstB.flby call_FirstB.First)))
(let ((.def_98 (and .def_14 .def_97)))
(let ((.def_11 (= call_First.flby call_First.First)))
(let ((.def_99 (and .def_11 .def_98)))
(let ((.def_137 (and .def_99 .def_136)))
.def_137)))))))))))))))))))))))))))))))))))))))))))))))))))))))))))))))))))))))))))))))))))))))))

(define-fun .trans () Bool
(let ((.def_326 (and param_etat1 param_etat2.next)))
(let ((.def_327 (not .def_326)))
(let ((.def_324 (= o1 o1.next)))
(let ((.def_321 (* (- 1) o1.next)))
(let ((.def_322 (+ o1 .def_321)))
(let ((.def_323 (= .def_322 (- 1))))
(let ((.def_325 (or .def_323 .def_324)))
(let ((.def_328 (or .def_325 .def_327)))
(let ((.def_329 (= flby.next .def_328)))
(let ((.def_318 (= call__PRODUCER_CONSUMMER_.o2 call__PRODUCER_CONSUMMER_.ite_keyword11.next)))
(let ((.def_319 (or param_etat3.next .def_318)))
(let ((.def_316 (= call__PRODUCER_CONSUMMER_.ite_keyword11.next call__PRODUCER_CONSUMMER_.ite_keyword10.next)))
(let ((.def_315 (not param_etat3.next)))
(let ((.def_317 (or .def_315 .def_316)))
(let ((.def_320 (and .def_317 .def_319)))
(let ((.def_330 (and .def_320 .def_329)))
(let ((.def_312 (= call__PRODUCER_CONSUMMER_.i call__PRODUCER_CONSUMMER_.ite_keyword2.next)))
(let ((.def_313 (or param_etat1.next .def_312)))
(let ((.def_310 (= call__PRODUCER_CONSUMMER_.ite_keyword2.next call__PRODUCER_CONSUMMER_.ite_keyword.next)))
(let ((.def_185 (not param_etat1.next)))
(let ((.def_311 (or .def_185 .def_310)))
(let ((.def_314 (and .def_311 .def_313)))
(let ((.def_331 (and .def_314 .def_330)))
(let ((.def_307 (= call__PRODUCER_CONSUMMER_.o1 call__PRODUCER_CONSUMMER_.ite_keyword9.next)))
(let ((.def_308 (or param_etat2.next .def_307)))
(let ((.def_305 (= call__PRODUCER_CONSUMMER_.ite_keyword9.next call__PRODUCER_CONSUMMER_.ite_keyword8.next)))
(let ((.def_176 (not param_etat2.next)))
(let ((.def_306 (or .def_176 .def_305)))
(let ((.def_309 (and .def_306 .def_308)))
(let ((.def_332 (and .def_309 .def_331)))
(let ((.def_302 (= call__PRODUCER_CONSUMMER_.i call__PRODUCER_CONSUMMER_.ite_keyword.next)))
(let ((.def_303 (or call__PRODUCER_CONSUMMER_.garde1.next .def_302)))
(let ((.def_298 (* (- 1) call__PRODUCER_CONSUMMER_.ite_keyword.next)))
(let ((.def_299 (+ call__PRODUCER_CONSUMMER_.i .def_298)))
(let ((.def_300 (= .def_299 1)))
(let ((.def_288 (not call__PRODUCER_CONSUMMER_.garde1.next)))
(let ((.def_301 (or .def_288 .def_300)))
(let ((.def_304 (and .def_301 .def_303)))
(let ((.def_333 (and .def_304 .def_332)))
(let ((.def_290 (= call__PRODUCER_CONSUMMER_.b call__PRODUCER_CONSUMMER_.ite_keyword3.next)))
(let ((.def_291 (or call__PRODUCER_CONSUMMER_.garde1.next .def_290)))
(let ((.def_285 (* (- 1) call__PRODUCER_CONSUMMER_.ite_keyword3.next)))
(let ((.def_286 (+ call__PRODUCER_CONSUMMER_.b .def_285)))
(let ((.def_287 (= .def_286 (- 1))))
(let ((.def_289 (or .def_287 .def_288)))
(let ((.def_292 (and .def_289 .def_291)))
(let ((.def_281 (* (- 1) call__PRODUCER_CONSUMMER_.ite_keyword4.next)))
(let ((.def_282 (+ call__PRODUCER_CONSUMMER_.b .def_281)))
(let ((.def_283 (= .def_282 1)))
(let ((.def_268 (not call__PRODUCER_CONSUMMER_.garde2.next)))
(let ((.def_284 (or .def_268 .def_283)))
(let ((.def_293 (and .def_284 .def_292)))
(let ((.def_279 (= call__PRODUCER_CONSUMMER_.b call__PRODUCER_CONSUMMER_.ite_keyword4.next)))
(let ((.def_280 (or call__PRODUCER_CONSUMMER_.garde2.next .def_279)))
(let ((.def_294 (and .def_280 .def_293)))
(let ((.def_275 (* (- 1) call__PRODUCER_CONSUMMER_.ite_keyword5.next)))
(let ((.def_276 (+ call__PRODUCER_CONSUMMER_.b .def_275)))
(let ((.def_277 (= .def_276 1)))
(let ((.def_259 (not call__PRODUCER_CONSUMMER_.garde3.next)))
(let ((.def_278 (or .def_259 .def_277)))
(let ((.def_295 (and .def_278 .def_294)))
(let ((.def_273 (= call__PRODUCER_CONSUMMER_.b call__PRODUCER_CONSUMMER_.ite_keyword5.next)))
(let ((.def_274 (or call__PRODUCER_CONSUMMER_.garde3.next .def_273)))
(let ((.def_296 (and .def_274 .def_295)))
(let ((.def_334 (and .def_296 .def_333)))
(let ((.def_270 (= call__PRODUCER_CONSUMMER_.o1 call__PRODUCER_CONSUMMER_.ite_keyword8.next)))
(let ((.def_271 (or call__PRODUCER_CONSUMMER_.garde2.next .def_270)))
(let ((.def_265 (* (- 1) call__PRODUCER_CONSUMMER_.ite_keyword8.next)))
(let ((.def_266 (+ call__PRODUCER_CONSUMMER_.o1 .def_265)))
(let ((.def_267 (= .def_266 (- 1))))
(let ((.def_269 (or .def_267 .def_268)))
(let ((.def_272 (and .def_269 .def_271)))
(let ((.def_335 (and .def_272 .def_334)))
(let ((.def_261 (= call__PRODUCER_CONSUMMER_.o2 call__PRODUCER_CONSUMMER_.ite_keyword10.next)))
(let ((.def_262 (or call__PRODUCER_CONSUMMER_.garde3.next .def_261)))
(let ((.def_256 (* (- 1) call__PRODUCER_CONSUMMER_.ite_keyword10.next)))
(let ((.def_257 (+ call__PRODUCER_CONSUMMER_.o2 .def_256)))
(let ((.def_258 (= .def_257 (- 1))))
(let ((.def_260 (or .def_258 .def_259)))
(let ((.def_263 (and .def_260 .def_262)))
(let ((.def_336 (and .def_263 .def_335)))
(let ((.def_251 (<= 1 call__PRODUCER_CONSUMMER_.i)))
(let ((.def_253 (= .def_251 call__PRODUCER_CONSUMMER_.garde1.next)))
(let ((.def_337 (and .def_253 .def_336)))
(let ((.def_246 (<= 1 call__PRODUCER_CONSUMMER_.b)))
(let ((.def_250 (= .def_246 call__PRODUCER_CONSUMMER_.garde2.next)))
(let ((.def_338 (and .def_250 .def_337)))
(let ((.def_248 (= .def_246 call__PRODUCER_CONSUMMER_.garde3.next)))
(let ((.def_339 (and .def_248 .def_338)))
(let ((.def_244 (= call__PRODUCER_CONSUMMER_.flby.next call__PRODUCER_CONSUMMER_.ite_keyword2.next)))
(let ((.def_340 (and .def_244 .def_339)))
(let ((.def_242 (= call__PRODUCER_CONSUMMER_.flby2.next call__PRODUCER_CONSUMMER_.ite_keyword7.next)))
(let ((.def_341 (and .def_242 .def_340)))
(let ((.def_241 (= call__PRODUCER_CONSUMMER_.a call__PRODUCER_CONSUMMER_.flby3.next)))
(let ((.def_342 (and .def_241 .def_341)))
(let ((.def_240 (= call__PRODUCER_CONSUMMER_.flby4.next call__PRODUCER_CONSUMMER_.ite_keyword9.next)))
(let ((.def_343 (and .def_240 .def_342)))
(let ((.def_238 (= call__PRODUCER_CONSUMMER_.flby5.next call__PRODUCER_CONSUMMER_.ite_keyword11.next)))
(let ((.def_344 (and .def_238 .def_343)))
(let ((.def_231 (or param_etat2.next param_etat1.next)))
(let ((.def_232 (or param_etat3.next .def_231)))
(let ((.def_233 (not .def_232)))
(let ((.def_234 (or call_excludes3.excludes.next .def_233)))
(let ((.def_235 (and call_Sofar.Sofar .def_234)))
(let ((.def_236 (= call_Sofar.flby.next .def_235)))
(let ((.def_345 (and .def_236 .def_344)))
(let ((.def_230 (= call_FirstB.First call_FirstB.flby.next)))
(let ((.def_346 (and .def_230 .def_345)))
(let ((.def_229 (= call_First.First call_First.flby.next)))
(let ((.def_347 (and .def_229 .def_346)))
(let ((.def_206 (not env.next)))
(let ((.def_208 (or .def_206 flby.next)))
(let ((.def_210 (= .def_208 _OK_.next)))
(let ((.def_205 (= call__PRODUCER_CONSUMMER_.i.next i.next)))
(let ((.def_211 (and .def_205 .def_210)))
(let ((.def_203 (= call__PRODUCER_CONSUMMER_.b.next b.next)))
(let ((.def_212 (and .def_203 .def_211)))
(let ((.def_201 (= call__PRODUCER_CONSUMMER_.a.next a.next)))
(let ((.def_213 (and .def_201 .def_212)))
(let ((.def_199 (= call__PRODUCER_CONSUMMER_.o1.next o1.next)))
(let ((.def_214 (and .def_199 .def_213)))
(let ((.def_197 (= call__PRODUCER_CONSUMMER_.o2.next o2.next)))
(let ((.def_215 (and .def_197 .def_214)))
(let ((.def_192 (and call_FirstB.First.next call_Sofar.Sofar.next)))
(let ((.def_190 (<= call_First.First.next 0)))
(let ((.def_191 (not .def_190)))
(let ((.def_193 (and .def_191 .def_192)))
(let ((.def_195 (= .def_193 env.next)))
(let ((.def_216 (and .def_195 .def_215)))
(let ((.def_187 (= call__PRODUCER_CONSUMMER_.ite_keyword6.next call__PRODUCER_CONSUMMER_.ite_keyword7.next)))
(let ((.def_188 (or param_etat1.next .def_187)))
(let ((.def_184 (= call__PRODUCER_CONSUMMER_.ite_keyword3.next call__PRODUCER_CONSUMMER_.ite_keyword7.next)))
(let ((.def_186 (or .def_184 .def_185)))
(let ((.def_189 (and .def_186 .def_188)))
(let ((.def_217 (and .def_189 .def_216)))
(let ((.def_179 (= call__PRODUCER_CONSUMMER_.ite_keyword6.next call__PRODUCER_CONSUMMER_.ite_keyword5.next)))
(let ((.def_180 (or param_etat2.next .def_179)))
(let ((.def_175 (= call__PRODUCER_CONSUMMER_.ite_keyword4.next call__PRODUCER_CONSUMMER_.ite_keyword6.next)))
(let ((.def_177 (or .def_175 .def_176)))
(let ((.def_181 (and .def_177 .def_180)))
(let ((.def_218 (and .def_181 .def_217)))
(let ((.def_172 (= call__PRODUCER_CONSUMMER_.flby.next call__PRODUCER_CONSUMMER_.i.next)))
(let ((.def_219 (and .def_172 .def_218)))
(let ((.def_169 (= call__PRODUCER_CONSUMMER_.flby2.next call__PRODUCER_CONSUMMER_.b.next)))
(let ((.def_220 (and .def_169 .def_219)))
(let ((.def_166 (= call__PRODUCER_CONSUMMER_.flby3.next call__PRODUCER_CONSUMMER_.a.next)))
(let ((.def_221 (and .def_166 .def_220)))
(let ((.def_163 (= call__PRODUCER_CONSUMMER_.flby4.next call__PRODUCER_CONSUMMER_.o1.next)))
(let ((.def_222 (and .def_163 .def_221)))
(let ((.def_160 (= call__PRODUCER_CONSUMMER_.flby5.next call__PRODUCER_CONSUMMER_.o2.next)))
(let ((.def_223 (and .def_160 .def_222)))
(let ((.def_153 (and param_etat2.next param_etat3.next)))
(let ((.def_151 (and param_etat1.next param_etat3.next)))
(let ((.def_149 (and param_etat2.next param_etat1.next)))
(let ((.def_152 (or .def_149 .def_151)))
(let ((.def_154 (or .def_152 .def_153)))
(let ((.def_155 (not .def_154)))
(let ((.def_157 (= .def_155 call_excludes3.excludes.next)))
(let ((.def_224 (and .def_157 .def_223)))
(let ((.def_146 (= call_Sofar.flby.next call_Sofar.Sofar.next)))
(let ((.def_225 (and .def_146 .def_224)))
(let ((.def_143 (= call_FirstB.flby.next call_FirstB.First.next)))
(let ((.def_226 (and .def_143 .def_225)))
(let ((.def_140 (= call_First.flby.next call_First.First.next)))
(let ((.def_227 (and .def_140 .def_226)))
(let ((.def_78 (not env)))
(let ((.def_80 (or .def_78 flby)))
(let ((.def_82 (= .def_80 _OK_)))
(let ((.def_77 (= call__PRODUCER_CONSUMMER_.i i)))
(let ((.def_83 (and .def_77 .def_82)))
(let ((.def_75 (= call__PRODUCER_CONSUMMER_.b b)))
(let ((.def_84 (and .def_75 .def_83)))
(let ((.def_73 (= call__PRODUCER_CONSUMMER_.a a)))
(let ((.def_85 (and .def_73 .def_84)))
(let ((.def_71 (= call__PRODUCER_CONSUMMER_.o1 o1)))
(let ((.def_86 (and .def_71 .def_85)))
(let ((.def_69 (= call__PRODUCER_CONSUMMER_.o2 o2)))
(let ((.def_87 (and .def_69 .def_86)))
(let ((.def_64 (and call_FirstB.First call_Sofar.Sofar)))
(let ((.def_62 (<= call_First.First 0)))
(let ((.def_63 (not .def_62)))
(let ((.def_65 (and .def_63 .def_64)))
(let ((.def_67 (= .def_65 env)))
(let ((.def_88 (and .def_67 .def_87)))
(let ((.def_58 (= call__PRODUCER_CONSUMMER_.ite_keyword6 call__PRODUCER_CONSUMMER_.ite_keyword7)))
(let ((.def_59 (or param_etat1 .def_58)))
(let ((.def_56 (not param_etat1)))
(let ((.def_55 (= call__PRODUCER_CONSUMMER_.ite_keyword7 call__PRODUCER_CONSUMMER_.ite_keyword3)))
(let ((.def_57 (or .def_55 .def_56)))
(let ((.def_60 (and .def_57 .def_59)))
(let ((.def_89 (and .def_60 .def_88)))
(let ((.def_50 (= call__PRODUCER_CONSUMMER_.ite_keyword6 call__PRODUCER_CONSUMMER_.ite_keyword5)))
(let ((.def_51 (or param_etat2 .def_50)))
(let ((.def_47 (not param_etat2)))
(let ((.def_46 (= call__PRODUCER_CONSUMMER_.ite_keyword6 call__PRODUCER_CONSUMMER_.ite_keyword4)))
(let ((.def_48 (or .def_46 .def_47)))
(let ((.def_52 (and .def_48 .def_51)))
(let ((.def_90 (and .def_52 .def_89)))
(let ((.def_43 (= call__PRODUCER_CONSUMMER_.flby call__PRODUCER_CONSUMMER_.i)))
(let ((.def_91 (and .def_43 .def_90)))
(let ((.def_40 (= call__PRODUCER_CONSUMMER_.flby2 call__PRODUCER_CONSUMMER_.b)))
(let ((.def_92 (and .def_40 .def_91)))
(let ((.def_37 (= call__PRODUCER_CONSUMMER_.a call__PRODUCER_CONSUMMER_.flby3)))
(let ((.def_93 (and .def_37 .def_92)))
(let ((.def_34 (= call__PRODUCER_CONSUMMER_.flby4 call__PRODUCER_CONSUMMER_.o1)))
(let ((.def_94 (and .def_34 .def_93)))
(let ((.def_31 (= call__PRODUCER_CONSUMMER_.flby5 call__PRODUCER_CONSUMMER_.o2)))
(let ((.def_95 (and .def_31 .def_94)))
(let ((.def_24 (and param_etat2 param_etat3)))
(let ((.def_22 (and param_etat1 param_etat3)))
(let ((.def_20 (and param_etat1 param_etat2)))
(let ((.def_23 (or .def_20 .def_22)))
(let ((.def_25 (or .def_23 .def_24)))
(let ((.def_26 (not .def_25)))
(let ((.def_28 (= .def_26 call_excludes3.excludes)))
(let ((.def_96 (and .def_28 .def_95)))
(let ((.def_17 (= call_Sofar.flby call_Sofar.Sofar)))
(let ((.def_97 (and .def_17 .def_96)))
(let ((.def_14 (= call_FirstB.flby call_FirstB.First)))
(let ((.def_98 (and .def_14 .def_97)))
(let ((.def_11 (= call_First.flby call_First.First)))
(let ((.def_99 (and .def_11 .def_98)))
(let ((.def_228 (and .def_99 .def_227)))
(let ((.def_348 (and .def_228 .def_347)))
.def_348)))))))))))))))))))))))))))))))))))))))))))))))))))))))))))))))))))))))))))))))))))))))))))))))))))))))))))))))))))))))))))))))))))))))))))))))))))))))))))))))))))))))))))))))))))))))))))))))))))))))))))))))))))))))))))))))))

(define-fun .property () Bool
_OK_)

(rule (=> .init (state |_OK_| |a| |b| |call_First.First| |call_First.flby| |call_FirstB.First| |call_FirstB.flby| |call_Sofar.Sofar| |call_Sofar.flby| |call__PRODUCER_CONSUMMER_.a| |call__PRODUCER_CONSUMMER_.b| |call__PRODUCER_CONSUMMER_.flby| |call__PRODUCER_CONSUMMER_.flby2| |call__PRODUCER_CONSUMMER_.flby3| |call__PRODUCER_CONSUMMER_.flby4| |call__PRODUCER_CONSUMMER_.flby5| |call__PRODUCER_CONSUMMER_.garde1| |call__PRODUCER_CONSUMMER_.garde2| |call__PRODUCER_CONSUMMER_.garde3| |call__PRODUCER_CONSUMMER_.i| |call__PRODUCER_CONSUMMER_.ite_keyword| |call__PRODUCER_CONSUMMER_.ite_keyword10| |call__PRODUCER_CONSUMMER_.ite_keyword11| |call__PRODUCER_CONSUMMER_.ite_keyword2| |call__PRODUCER_CONSUMMER_.ite_keyword3| |call__PRODUCER_CONSUMMER_.ite_keyword4| |call__PRODUCER_CONSUMMER_.ite_keyword5| |call__PRODUCER_CONSUMMER_.ite_keyword6| |call__PRODUCER_CONSUMMER_.ite_keyword7| |call__PRODUCER_CONSUMMER_.ite_keyword8| |call__PRODUCER_CONSUMMER_.ite_keyword9| |call__PRODUCER_CONSUMMER_.o1| |call__PRODUCER_CONSUMMER_.o2| |call_excludes3.excludes| |env| |flby| |i| |o1| |o2| |param_etat1| |param_etat2| |param_etat3|)))
(rule (=> (and (state |_OK_| |a| |b| |call_First.First| |call_First.flby| |call_FirstB.First| |call_FirstB.flby| |call_Sofar.Sofar| |call_Sofar.flby| |call__PRODUCER_CONSUMMER_.a| |call__PRODUCER_CONSUMMER_.b| |call__PRODUCER_CONSUMMER_.flby| |call__PRODUCER_CONSUMMER_.flby2| |call__PRODUCER_CONSUMMER_.flby3| |call__PRODUCER_CONSUMMER_.flby4| |call__PRODUCER_CONSUMMER_.flby5| |call__PRODUCER_CONSUMMER_.garde1| |call__PRODUCER_CONSUMMER_.garde2| |call__PRODUCER_CONSUMMER_.garde3| |call__PRODUCER_CONSUMMER_.i| |call__PRODUCER_CONSUMMER_.ite_keyword| |call__PRODUCER_CONSUMMER_.ite_keyword10| |call__PRODUCER_CONSUMMER_.ite_keyword11| |call__PRODUCER_CONSUMMER_.ite_keyword2| |call__PRODUCER_CONSUMMER_.ite_keyword3| |call__PRODUCER_CONSUMMER_.ite_keyword4| |call__PRODUCER_CONSUMMER_.ite_keyword5| |call__PRODUCER_CONSUMMER_.ite_keyword6| |call__PRODUCER_CONSUMMER_.ite_keyword7| |call__PRODUCER_CONSUMMER_.ite_keyword8| |call__PRODUCER_CONSUMMER_.ite_keyword9| |call__PRODUCER_CONSUMMER_.o1| |call__PRODUCER_CONSUMMER_.o2| |call_excludes3.excludes| |env| |flby| |i| |o1| |o2| |param_etat1| |param_etat2| |param_etat3|) .trans) (state |_OK_.next| |a.next| |b.next| |call_First.First.next| |call_First.flby.next| |call_FirstB.First.next| |call_FirstB.flby.next| |call_Sofar.Sofar.next| |call_Sofar.flby.next| |call__PRODUCER_CONSUMMER_.a.next| |call__PRODUCER_CONSUMMER_.b.next| |call__PRODUCER_CONSUMMER_.flby.next| |call__PRODUCER_CONSUMMER_.flby2.next| |call__PRODUCER_CONSUMMER_.flby3.next| |call__PRODUCER_CONSUMMER_.flby4.next| |call__PRODUCER_CONSUMMER_.flby5.next| |call__PRODUCER_CONSUMMER_.garde1.next| |call__PRODUCER_CONSUMMER_.garde2.next| |call__PRODUCER_CONSUMMER_.garde3.next| |call__PRODUCER_CONSUMMER_.i.next| |call__PRODUCER_CONSUMMER_.ite_keyword.next| |call__PRODUCER_CONSUMMER_.ite_keyword10.next| |call__PRODUCER_CONSUMMER_.ite_keyword11.next| |call__PRODUCER_CONSUMMER_.ite_keyword2.next| |call__PRODUCER_CONSUMMER_.ite_keyword3.next| |call__PRODUCER_CONSUMMER_.ite_keyword4.next| |call__PRODUCER_CONSUMMER_.ite_keyword5.next| |call__PRODUCER_CONSUMMER_.ite_keyword6.next| |call__PRODUCER_CONSUMMER_.ite_keyword7.next| |call__PRODUCER_CONSUMMER_.ite_keyword8.next| |call__PRODUCER_CONSUMMER_.ite_keyword9.next| |call__PRODUCER_CONSUMMER_.o1.next| |call__PRODUCER_CONSUMMER_.o2.next| |call_excludes3.excludes.next| |env.next| |flby.next| |i.next| |o1.next| |o2.next| |param_etat1.next| |param_etat2.next| |param_etat3.next|)))
(declare-rel benchmark_query ())
(rule (=> (and (state |_OK_| |a| |b| |call_First.First| |call_First.flby| |call_FirstB.First| |call_FirstB.flby| |call_Sofar.Sofar| |call_Sofar.flby| |call__PRODUCER_CONSUMMER_.a| |call__PRODUCER_CONSUMMER_.b| |call__PRODUCER_CONSUMMER_.flby| |call__PRODUCER_CONSUMMER_.flby2| |call__PRODUCER_CONSUMMER_.flby3| |call__PRODUCER_CONSUMMER_.flby4| |call__PRODUCER_CONSUMMER_.flby5| |call__PRODUCER_CONSUMMER_.garde1| |call__PRODUCER_CONSUMMER_.garde2| |call__PRODUCER_CONSUMMER_.garde3| |call__PRODUCER_CONSUMMER_.i| |call__PRODUCER_CONSUMMER_.ite_keyword| |call__PRODUCER_CONSUMMER_.ite_keyword10| |call__PRODUCER_CONSUMMER_.ite_keyword11| |call__PRODUCER_CONSUMMER_.ite_keyword2| |call__PRODUCER_CONSUMMER_.ite_keyword3| |call__PRODUCER_CONSUMMER_.ite_keyword4| |call__PRODUCER_CONSUMMER_.ite_keyword5| |call__PRODUCER_CONSUMMER_.ite_keyword6| |call__PRODUCER_CONSUMMER_.ite_keyword7| |call__PRODUCER_CONSUMMER_.ite_keyword8| |call__PRODUCER_CONSUMMER_.ite_keyword9| |call__PRODUCER_CONSUMMER_.o1| |call__PRODUCER_CONSUMMER_.o2| |call_excludes3.excludes| |env| |flby| |i| |o1| |o2| |param_etat1| |param_etat2| |param_etat3|) (not .property)) benchmark_query))
(query benchmark_query)
